experiments/sat_smt/run/sat-r/results/adam.res
solved=true
solvingTime=25.0618076324462890625
nActions=12