experiments/sat_smt/run/sat-r/results/adam.out
Timesteps: 1
s UNSATISFIABLE
real 0.15
user 0.01
sys 0.00
Timesteps: 2
s UNSATISFIABLE
real 0.15
user 0.03
sys 0.00
Timesteps: 3
s UNSATISFIABLE
real 0.20
user 0.05
sys 0.01
Timesteps: 4
s UNSATISFIABLE
real 0.17
user 0.08
sys 0.00
Timesteps: 5
s UNSATISFIABLE
real 0.30
user 0.20
sys 0.01
Timesteps: 6
s UNSATISFIABLE
real 0.67
user 0.56
sys 0.01
Timesteps: 7
s UNSATISFIABLE
real 1.20
user 1.07
sys 0.01
Timesteps: 8
s UNSATISFIABLE
real 1.75
user 1.60
sys 0.01
Timesteps: 9
s UNSATISFIABLE
real 4.10
user 3.86
sys 0.02
Timesteps: 10
s UNSATISFIABLE
real 4.82
user 4.61
sys 0.02
Timesteps: 11
s UNSATISFIABLE
real 6.77
user 6.55
sys 0.02
Timesteps: 12
s SATISFIABLE
real 4.89
user 4.38
sys 0.02
